(set-logic QF_LIA)
(declare-fun x0 () Int)
(declare-fun x1 () Int)
(declare-fun x2 () Int)
(declare-fun x3 () Int)
(declare-fun x4 () Int)
(declare-fun x5 () Int)
(declare-fun x6 () Int)
(declare-fun x7 () Int)
(declare-fun x8 () Int)
(declare-fun x9 () Int)
(declare-fun A0 () Bool)
(declare-fun A1 () Bool)
(declare-fun A2 () Bool)
(declare-fun A3 () Bool)
(declare-fun A4 () Bool)
(declare-fun A5 () Bool)
(declare-fun A6 () Bool)
(declare-fun A7 () Bool)
(declare-fun A8 () Bool)
(declare-fun A9 () Bool)
(assert (let ((.def_0 (* (- 1) x7))) (let ((.def_1 (* 1 x2))) (let ((.def_2 (+ .def_1 .def_0))) (let ((.def_3 (< .def_2 (- 1)))) (let ((.def_4 (= A7 .def_3))) (let ((.def_5 (not .def_4))) (let ((.def_6 (* (- 1) x1))) (let ((.def_7 (+ .def_6 .def_1))) (let ((.def_8 (< .def_7 (- 1)))) (let ((.def_9 (* 1 x8))) (let ((.def_10 (< .def_9 (- 1)))) (let ((.def_11 (not .def_10))) (let ((.def_12 (and .def_11 .def_8))) (let ((.def_13 (and .def_12 .def_5))) (let ((.def_14 (not .def_13))) (let ((.def_15 (* 1 x0))) (let ((.def_16 (* (- 1) x9))) (let ((.def_17 (+ .def_16 .def_15))) (let ((.def_18 (< .def_17 (- 1)))) (let ((.def_19 (not .def_18))) (let ((.def_20 (* 1 x1))) (let ((.def_21 (+ .def_15 .def_20))) (let ((.def_22 (< .def_21 1))) (let ((.def_23 (not .def_22))) (let ((.def_24 (and .def_23 .def_19))) (let ((.def_25 (not A3))) (let ((.def_26 (not A4))) (let ((.def_27 (and .def_26 .def_25))) (let ((.def_28 (not .def_27))) (let ((.def_29 (and .def_28 .def_24))) (let ((.def_30 (and .def_29 .def_14))) (let ((.def_31 (* (- 1) x6))) (let ((.def_32 (+ .def_15 .def_31))) (let ((.def_33 (< .def_32 1))) (let ((.def_34 (not .def_33))) (let ((.def_35 (or .def_34 A8))) (let ((.def_36 (* 1 x4))) (let ((.def_37 (+ .def_36 .def_16))) (let ((.def_38 (< .def_37 (- 1)))) (let ((.def_39 (= A7 .def_38))) (let ((.def_40 (not .def_39))) (let ((.def_41 (or .def_40 .def_35))) (let ((.def_42 (not .def_41))) (let ((.def_43 (* 1 x7))) (let ((.def_44 (< .def_43 (- 1)))) (let ((.def_45 (not A6))) (let ((.def_46 (and .def_45 .def_44))) (let ((.def_47 (not .def_46))) (let ((.def_48 (not A7))) (let ((.def_49 (and .def_48 A4))) (let ((.def_50 (or .def_49 .def_47))) (let ((.def_51 (or .def_50 .def_42))) (let ((.def_52 (not .def_51))) (let ((.def_53 (or .def_52 .def_30))) (let ((.def_54 (< .def_6 (- 1)))) (let ((.def_55 (* 1 x3))) (let ((.def_56 (+ .def_0 .def_55))) (let ((.def_57 (< .def_56 1))) (let ((.def_58 (not .def_57))) (let ((.def_59 (or .def_58 .def_54))) (let ((.def_60 (not .def_59))) (let ((.def_61 (< .def_31 1))) (let ((.def_62 (< .def_36 1))) (let ((.def_63 (and .def_62 .def_61))) (let ((.def_64 (or .def_63 .def_60))) (let ((.def_65 (or A2 A4))) (let ((.def_66 (not .def_65))) (let ((.def_67 (* 1 x9))) (let ((.def_68 (< .def_67 (- 1)))) (let ((.def_69 (not .def_68))) (let ((.def_70 (or .def_68 .def_69))) (let ((.def_71 (not .def_70))) (let ((.def_72 (or .def_71 .def_66))) (let ((.def_73 (not .def_72))) (let ((.def_74 (or .def_73 .def_64))) (let ((.def_75 (not A0))) (let ((.def_76 (and A4 .def_75))) (let ((.def_77 (* (- 1) x5))) (let ((.def_78 (+ .def_77 .def_36))) (let ((.def_79 (< .def_78 (- 1)))) (let ((.def_80 (not .def_79))) (let ((.def_81 (or .def_80 A1))) (let ((.def_82 (not .def_81))) (let ((.def_83 (or .def_82 .def_76))) (let ((.def_84 (not .def_83))) (let ((.def_85 (not .def_44))) (let ((.def_86 (< .def_77 (- 1)))) (let ((.def_87 (not .def_86))) (let ((.def_88 (or .def_87 .def_85))) (let ((.def_89 (* (- 1) x2))) (let ((.def_90 (< .def_89 1))) (let ((.def_91 (and A9 .def_90))) (let ((.def_92 (not .def_91))) (let ((.def_93 (and .def_92 .def_88))) (let ((.def_94 (not .def_93))) (let ((.def_95 (or .def_94 .def_84))) (let ((.def_96 (or .def_95 .def_74))) (let ((.def_97 (or .def_96 .def_53))) (let ((.def_98 (not .def_97))) (let ((.def_99 (* (- 1) x8))) (let ((.def_100 (< .def_99 1))) (let ((.def_101 (* (- 1) x4))) (let ((.def_102 (< .def_101 (- 1)))) (let ((.def_103 (not .def_102))) (let ((.def_104 (and .def_103 .def_100))) (let ((.def_105 (not .def_104))) (let ((.def_106 (= .def_25 .def_75))) (let ((.def_107 (not .def_106))) (let ((.def_108 (and .def_107 .def_105))) (let ((.def_109 (< .def_99 (- 1)))) (let ((.def_110 (= .def_45 .def_109))) (let ((.def_111 (+ .def_89 .def_99))) (let ((.def_112 (< .def_111 (- 1)))) (let ((.def_113 (not .def_112))) (let ((.def_114 (< .def_9 1))) (let ((.def_115 (not .def_114))) (let ((.def_116 (and .def_115 .def_113))) (let ((.def_117 (and .def_116 .def_110))) (let ((.def_118 (not .def_117))) (let ((.def_119 (and .def_118 .def_108))) (let ((.def_120 (and A7 .def_45))) (let ((.def_121 (not .def_120))) (let ((.def_122 (+ .def_0 .def_15))) (let ((.def_123 (< .def_122 1))) (let ((.def_124 (or .def_26 .def_123))) (let ((.def_125 (not .def_124))) (let ((.def_126 (or .def_125 .def_121))) (let ((.def_127 (not .def_126))) (let ((.def_128 (< .def_43 1))) (let ((.def_129 (or .def_75 .def_128))) (let ((.def_130 (not .def_129))) (let ((.def_131 (+ .def_15 .def_6))) (let ((.def_132 (< .def_131 1))) (let ((.def_133 (not .def_132))) (let ((.def_134 (or A2 .def_133))) (let ((.def_135 (not .def_134))) (let ((.def_136 (or .def_135 .def_130))) (let ((.def_137 (or .def_136 .def_127))) (let ((.def_138 (not .def_137))) (let ((.def_139 (or .def_138 .def_119))) (let ((.def_140 (not .def_139))) (let ((.def_141 (< .def_36 (- 1)))) (let ((.def_142 (not .def_141))) (let ((.def_143 (or .def_142 A2))) (let ((.def_144 (not .def_143))) (let ((.def_145 (not A8))) (let ((.def_146 (and .def_145 .def_26))) (let ((.def_147 (or .def_146 .def_144))) (let ((.def_148 (or A3 A7))) (let ((.def_149 (and A4 .def_45))) (let ((.def_150 (not .def_149))) (let ((.def_151 (= .def_150 .def_148))) (let ((.def_152 (not .def_151))) (let ((.def_153 (or .def_152 .def_147))) (let ((.def_154 (not .def_153))) (let ((.def_155 (+ .def_67 .def_20))) (let ((.def_156 (< .def_155 1))) (let ((.def_157 (not .def_156))) (let ((.def_158 (and .def_48 .def_157))) (let ((.def_159 (not .def_158))) (let ((.def_160 (+ .def_20 .def_99))) (let ((.def_161 (< .def_160 (- 1)))) (let ((.def_162 (not .def_161))) (let ((.def_163 (or A2 .def_162))) (let ((.def_164 (= .def_163 .def_159))) (let ((.def_165 (not .def_164))) (let ((.def_166 (+ .def_6 .def_55))) (let ((.def_167 (< .def_166 1))) (let ((.def_168 (not .def_167))) (let ((.def_169 (and .def_168 A7))) (let ((.def_170 (not .def_90))) (let ((.def_171 (or .def_75 .def_170))) (let ((.def_172 (not .def_171))) (let ((.def_173 (or .def_172 .def_169))) (let ((.def_174 (and .def_173 .def_165))) (let ((.def_175 (not .def_174))) (let ((.def_176 (or .def_175 .def_154))) (let ((.def_177 (or .def_176 .def_140))) (let ((.def_178 (or .def_177 .def_98))) (let ((.def_179 (and .def_26 A4))) (let ((.def_180 (not .def_179))) (let ((.def_181 (< .def_0 (- 1)))) (let ((.def_182 (and .def_26 .def_181))) (let ((.def_183 (not .def_182))) (let ((.def_184 (and .def_183 .def_180))) (let ((.def_185 (not .def_184))) (let ((.def_186 (+ .def_9 .def_36))) (let ((.def_187 (< .def_186 (- 1)))) (let ((.def_188 (not .def_187))) (let ((.def_189 (or .def_188 A5))) (let ((.def_190 (* (- 1) x0))) (let ((.def_191 (< .def_190 1))) (let ((.def_192 (+ .def_55 .def_16))) (let ((.def_193 (< .def_192 1))) (let ((.def_194 (= .def_193 .def_191))) (let ((.def_195 (not .def_194))) (let ((.def_196 (or .def_195 .def_189))) (let ((.def_197 (or .def_196 .def_185))) (let ((.def_198 (not A2))) (let ((.def_199 (+ .def_101 .def_67))) (let ((.def_200 (< .def_199 1))) (let ((.def_201 (= .def_200 .def_198))) (let ((.def_202 (not .def_201))) (let ((.def_203 (+ .def_36 .def_99))) (let ((.def_204 (< .def_203 (- 1)))) (let ((.def_205 (or .def_198 .def_204))) (let ((.def_206 (and .def_205 .def_202))) (let ((.def_207 (not A1))) (let ((.def_208 (and .def_207 A9))) (let ((.def_209 (not .def_208))) (let ((.def_210 (= A7 .def_26))) (let ((.def_211 (not .def_210))) (let ((.def_212 (or .def_211 .def_209))) (let ((.def_213 (not .def_212))) (let ((.def_214 (or .def_213 .def_206))) (let ((.def_215 (and .def_214 .def_197))) (let ((.def_216 (not .def_215))) (let ((.def_217 (* (- 1) x3))) (let ((.def_218 (+ .def_43 .def_217))) (let ((.def_219 (< .def_218 1))) (let ((.def_220 (not .def_219))) (let ((.def_221 (or .def_220 .def_25))) (let ((.def_222 (< .def_217 1))) (let ((.def_223 (not .def_222))) (let ((.def_224 (and A4 .def_223))) (let ((.def_225 (not .def_224))) (let ((.def_226 (or .def_225 .def_221))) (let ((.def_227 (not .def_226))) (let ((.def_228 (< .def_20 (- 1)))) (let ((.def_229 (or .def_198 .def_228))) (let ((.def_230 (not .def_229))) (let ((.def_231 (or .def_11 .def_198))) (let ((.def_232 (not .def_231))) (let ((.def_233 (or .def_232 .def_230))) (let ((.def_234 (or .def_233 .def_227))) (let ((.def_235 (< .def_31 (- 1)))) (let ((.def_236 (not .def_191))) (let ((.def_237 (and .def_236 .def_235))) (let ((.def_238 (not .def_237))) (let ((.def_239 (+ .def_0 .def_89))) (let ((.def_240 (< .def_239 1))) (let ((.def_241 (not .def_240))) (let ((.def_242 (or A9 .def_241))) (let ((.def_243 (or .def_242 .def_238))) (let ((.def_244 (+ .def_15 .def_101))) (let ((.def_245 (< .def_244 1))) (let ((.def_246 (not .def_245))) (let ((.def_247 (or A6 .def_246))) (let ((.def_248 (< .def_37 1))) (let ((.def_249 (or .def_248 .def_25))) (let ((.def_250 (not .def_249))) (let ((.def_251 (and .def_250 .def_247))) (let ((.def_252 (not .def_251))) (let ((.def_253 (and .def_252 .def_243))) (let ((.def_254 (not .def_253))) (let ((.def_255 (= .def_254 .def_234))) (let ((.def_256 (not .def_255))) (let ((.def_257 (or .def_256 .def_216))) (let ((.def_258 (and .def_11 A7))) (let ((.def_259 (not .def_258))) (let ((.def_260 (not A5))) (let ((.def_261 (and .def_260 A2))) (let ((.def_262 (or .def_261 .def_259))) (let ((.def_263 (not .def_262))) (let ((.def_264 (or .def_207 .def_75))) (let ((.def_265 (not A9))) (let ((.def_266 (and .def_265 .def_45))) (let ((.def_267 (or .def_266 .def_264))) (let ((.def_268 (and .def_267 .def_263))) (let ((.def_269 (< .def_77 1))) (let ((.def_270 (not .def_269))) (let ((.def_271 (and A0 .def_270))) (let ((.def_272 (not .def_271))) (let ((.def_273 (+ .def_15 .def_67))) (let ((.def_274 (< .def_273 (- 1)))) (let ((.def_275 (not .def_274))) (let ((.def_276 (* 1 x5))) (let ((.def_277 (< .def_276 1))) (let ((.def_278 (or .def_277 .def_275))) (let ((.def_279 (not .def_278))) (let ((.def_280 (= .def_279 .def_272))) (let ((.def_281 (+ .def_190 .def_0))) (let ((.def_282 (< .def_281 (- 1)))) (let ((.def_283 (or .def_145 .def_282))) (let ((.def_284 (not .def_283))) (let ((.def_285 (or A4 .def_265))) (let ((.def_286 (not .def_285))) (let ((.def_287 (or .def_286 .def_284))) (let ((.def_288 (or .def_287 .def_280))) (let ((.def_289 (not .def_288))) (let ((.def_290 (or .def_289 .def_268))) (let ((.def_291 (not .def_290))) (let ((.def_292 (or .def_170 A8))) (let ((.def_293 (not .def_292))) (let ((.def_294 (and .def_25 .def_18))) (let ((.def_295 (not .def_294))) (let ((.def_296 (or .def_295 .def_293))) (let ((.def_297 (or A0 A6))) (let ((.def_298 (+ .def_0 .def_6))) (let ((.def_299 (< .def_298 1))) (let ((.def_300 (= .def_299 .def_68))) (let ((.def_301 (not .def_300))) (let ((.def_302 (and .def_301 .def_297))) (let ((.def_303 (and .def_302 .def_296))) (let ((.def_304 (< .def_1 1))) (let ((.def_305 (+ .def_20 .def_16))) (let ((.def_306 (< .def_305 (- 1)))) (let ((.def_307 (not .def_306))) (let ((.def_308 (and .def_307 .def_304))) (let ((.def_309 (not .def_308))) (let ((.def_310 (+ .def_217 .def_1))) (let ((.def_311 (< .def_310 (- 1)))) (let ((.def_312 (or .def_311 A2))) (let ((.def_313 (not .def_312))) (let ((.def_314 (and .def_313 .def_309))) (let ((.def_315 (+ .def_6 .def_101))) (let ((.def_316 (< .def_315 (- 1)))) (let ((.def_317 (not .def_316))) (let ((.def_318 (or .def_207 .def_317))) (let ((.def_319 (< .def_190 (- 1)))) (let ((.def_320 (not .def_319))) (let ((.def_321 (and A2 .def_320))) (let ((.def_322 (not .def_321))) (let ((.def_323 (or .def_322 .def_318))) (let ((.def_324 (not .def_323))) (let ((.def_325 (= .def_324 .def_314))) (let ((.def_326 (not .def_325))) (let ((.def_327 (and .def_326 .def_303))) (let ((.def_328 (or .def_327 .def_291))) (let ((.def_329 (not .def_328))) (let ((.def_330 (or .def_329 .def_257))) (let ((.def_331 (and .def_330 .def_178))) (let ((.def_332 (+ .def_67 .def_101))) (let ((.def_333 (< .def_332 1))) (let ((.def_334 (and .def_333 .def_207))) (let ((.def_335 (+ .def_36 .def_217))) (let ((.def_336 (< .def_335 (- 1)))) (let ((.def_337 (or .def_75 .def_336))) (let ((.def_338 (or .def_337 .def_334))) (let ((.def_339 (not .def_338))) (let ((.def_340 (+ .def_15 .def_1))) (let ((.def_341 (< .def_340 1))) (let ((.def_342 (and A9 .def_341))) (let ((.def_343 (and A7 .def_236))) (let ((.def_344 (or .def_343 .def_342))) (let ((.def_345 (not .def_344))) (let ((.def_346 (and .def_345 .def_339))) (let ((.def_347 (not .def_346))) (let ((.def_348 (+ .def_55 .def_15))) (let ((.def_349 (< .def_348 (- 1)))) (let ((.def_350 (not .def_349))) (let ((.def_351 (or .def_350 .def_133))) (let ((.def_352 (or .def_69 A4))) (let ((.def_353 (and .def_352 .def_351))) (let ((.def_354 (= .def_236 .def_265))) (let ((.def_355 (or A3 A8))) (let ((.def_356 (not .def_355))) (let ((.def_357 (or .def_356 .def_354))) (let ((.def_358 (or .def_357 .def_353))) (let ((.def_359 (or .def_358 .def_347))) (let ((.def_360 (not .def_359))) (let ((.def_361 (< .def_55 (- 1)))) (let ((.def_362 (* 1 x6))) (let ((.def_363 (+ .def_362 .def_6))) (let ((.def_364 (< .def_363 (- 1)))) (let ((.def_365 (not .def_364))) (let ((.def_366 (or .def_365 .def_361))) (let ((.def_367 (+ .def_190 .def_1))) (let ((.def_368 (< .def_367 1))) (let ((.def_369 (and .def_368 A9))) (let ((.def_370 (not .def_369))) (let ((.def_371 (and .def_370 .def_366))) (let ((.def_372 (not .def_371))) (let ((.def_373 (< .def_1 (- 1)))) (let ((.def_374 (or .def_25 .def_373))) (let ((.def_375 (not .def_374))) (let ((.def_376 (+ .def_67 .def_190))) (let ((.def_377 (< .def_376 1))) (let ((.def_378 (< .def_15 1))) (let ((.def_379 (or .def_378 .def_377))) (let ((.def_380 (= .def_379 .def_375))) (let ((.def_381 (not .def_380))) (let ((.def_382 (and .def_381 .def_372))) (let ((.def_383 (not .def_62))) (let ((.def_384 (< .def_67 1))) (let ((.def_385 (not .def_384))) (let ((.def_386 (and .def_385 .def_383))) (let ((.def_387 (not .def_386))) (let ((.def_388 (+ .def_276 .def_362))) (let ((.def_389 (< .def_388 1))) (let ((.def_390 (not .def_389))) (let ((.def_391 (and .def_75 .def_390))) (let ((.def_392 (not .def_391))) (let ((.def_393 (or .def_392 .def_387))) (let ((.def_394 (+ .def_67 .def_362))) (let ((.def_395 (< .def_394 (- 1)))) (let ((.def_396 (not .def_395))) (let ((.def_397 (or .def_396 .def_207))) (let ((.def_398 (not .def_397))) (let ((.def_399 (not .def_109))) (let ((.def_400 (and .def_304 .def_399))) (let ((.def_401 (or .def_400 .def_398))) (let ((.def_402 (and .def_401 .def_393))) (let ((.def_403 (not .def_402))) (let ((.def_404 (and .def_403 .def_382))) (let ((.def_405 (not .def_404))) (let ((.def_406 (or .def_405 .def_360))) (let ((.def_407 (not .def_406))) (let ((.def_408 (+ .def_9 .def_43))) (let ((.def_409 (< .def_408 1))) (let ((.def_410 (and A0 .def_409))) (let ((.def_411 (or A4 .def_145))) (let ((.def_412 (not .def_411))) (let ((.def_413 (or .def_412 .def_410))) (let ((.def_414 (not .def_413))) (let ((.def_415 (+ .def_77 .def_16))) (let ((.def_416 (< .def_415 1))) (let ((.def_417 (not .def_416))) (let ((.def_418 (+ .def_190 .def_67))) (let ((.def_419 (< .def_418 1))) (let ((.def_420 (not .def_419))) (let ((.def_421 (and .def_420 .def_417))) (let ((.def_422 (not .def_128))) (let ((.def_423 (+ .def_36 .def_31))) (let ((.def_424 (< .def_423 1))) (let ((.def_425 (or .def_424 .def_422))) (let ((.def_426 (not .def_425))) (let ((.def_427 (and .def_426 .def_421))) (let ((.def_428 (not .def_427))) (let ((.def_429 (and .def_428 .def_414))) (let ((.def_430 (not .def_429))) (let ((.def_431 (and A7 .def_223))) (let ((.def_432 (not .def_431))) (let ((.def_433 (= A7 .def_25))) (let ((.def_434 (and .def_433 .def_432))) (let ((.def_435 (not .def_373))) (let ((.def_436 (and A3 .def_435))) (let ((.def_437 (not .def_436))) (let ((.def_438 (< .def_15 (- 1)))) (let ((.def_439 (= .def_265 .def_438))) (let ((.def_440 (not .def_439))) (let ((.def_441 (and .def_440 .def_437))) (let ((.def_442 (not .def_441))) (let ((.def_443 (or .def_442 .def_434))) (let ((.def_444 (and .def_443 .def_430))) (let ((.def_445 (< .def_305 1))) (let ((.def_446 (not .def_445))) (let ((.def_447 (and .def_198 .def_446))) (let ((.def_448 (and .def_198 .def_260))) (let ((.def_449 (or .def_448 .def_447))) (let ((.def_450 (not .def_449))) (let ((.def_451 (+ .def_16 .def_9))) (let ((.def_452 (< .def_451 (- 1)))) (let ((.def_453 (not .def_452))) (let ((.def_454 (and .def_109 .def_453))) (let ((.def_455 (< .def_276 (- 1)))) (let ((.def_456 (not .def_455))) (let ((.def_457 (= .def_456 .def_265))) (let ((.def_458 (not .def_457))) (let ((.def_459 (and .def_458 .def_454))) (let ((.def_460 (and .def_459 .def_450))) (let ((.def_461 (not .def_460))) (let ((.def_462 (not .def_277))) (let ((.def_463 (< .def_101 1))) (let ((.def_464 (not .def_463))) (let ((.def_465 (= .def_464 .def_462))) (let ((.def_466 (+ .def_16 .def_276))) (let ((.def_467 (< .def_466 1))) (let ((.def_468 (not .def_467))) (let ((.def_469 (+ .def_43 .def_15))) (let ((.def_470 (< .def_469 1))) (let ((.def_471 (or .def_470 .def_468))) (let ((.def_472 (or .def_471 .def_465))) (let ((.def_473 (and .def_456 .def_462))) (let ((.def_474 (= .def_26 A0))) (let ((.def_475 (not .def_474))) (let ((.def_476 (and .def_475 .def_473))) (let ((.def_477 (not .def_476))) (let ((.def_478 (and .def_477 .def_472))) (let ((.def_479 (not .def_478))) (let ((.def_480 (= .def_479 .def_461))) (let ((.def_481 (not .def_480))) (let ((.def_482 (and .def_481 .def_444))) (let ((.def_483 (or .def_482 .def_407))) (let ((.def_484 (or .def_361 .def_455))) (let ((.def_485 (not .def_484))) (let ((.def_486 (+ .def_77 .def_89))) (let ((.def_487 (< .def_486 1))) (let ((.def_488 (not .def_487))) (let ((.def_489 (and .def_488 .def_75))) (let ((.def_490 (not .def_489))) (let ((.def_491 (and .def_490 .def_485))) (let ((.def_492 (+ .def_99 .def_43))) (let ((.def_493 (< .def_492 (- 1)))) (let ((.def_494 (not .def_493))) (let ((.def_495 (+ .def_31 .def_77))) (let ((.def_496 (< .def_495 1))) (let ((.def_497 (not .def_496))) (let ((.def_498 (and .def_497 .def_494))) (let ((.def_499 (not .def_498))) (let ((.def_500 (and A4 .def_48))) (let ((.def_501 (and .def_500 .def_499))) (let ((.def_502 (not .def_501))) (let ((.def_503 (= .def_502 .def_491))) (let ((.def_504 (< .def_89 (- 1)))) (let ((.def_505 (not .def_504))) (let ((.def_506 (or .def_505 .def_75))) (let ((.def_507 (not .def_304))) (let ((.def_508 (and .def_507 .def_497))) (let ((.def_509 (not .def_508))) (let ((.def_510 (or .def_509 .def_506))) (let ((.def_511 (+ .def_31 .def_99))) (let ((.def_512 (< .def_511 (- 1)))) (let ((.def_513 (not .def_512))) (let ((.def_514 (or .def_45 .def_513))) (let ((.def_515 (and .def_26 A6))) (let ((.def_516 (or .def_515 .def_514))) (let ((.def_517 (not .def_516))) (let ((.def_518 (or .def_517 .def_510))) (let ((.def_519 (or .def_518 .def_503))) (let ((.def_520 (or .def_235 .def_207))) (let ((.def_521 (+ .def_6 .def_16))) (let ((.def_522 (< .def_521 (- 1)))) (let ((.def_523 (and A0 .def_522))) (let ((.def_524 (not .def_523))) (let ((.def_525 (and .def_524 .def_520))) (let ((.def_526 (not .def_525))) (let ((.def_527 (and A3 .def_45))) (let ((.def_528 (not .def_527))) (let ((.def_529 (< .def_56 (- 1)))) (let ((.def_530 (and .def_25 .def_529))) (let ((.def_531 (not .def_530))) (let ((.def_532 (or .def_531 .def_528))) (let ((.def_533 (or .def_532 .def_526))) (let ((.def_534 (+ .def_276 .def_55))) (let ((.def_535 (< .def_534 1))) (let ((.def_536 (or .def_114 .def_535))) (let ((.def_537 (and A9 A0))) (let ((.def_538 (not .def_537))) (let ((.def_539 (= .def_538 .def_536))) (let ((.def_540 (+ .def_362 .def_190))) (let ((.def_541 (< .def_540 (- 1)))) (let ((.def_542 (not .def_541))) (let ((.def_543 (or .def_542 .def_25))) (let ((.def_544 (not .def_543))) (let ((.def_545 (and .def_507 .def_170))) (let ((.def_546 (or .def_545 .def_544))) (let ((.def_547 (and .def_546 .def_539))) (let ((.def_548 (not .def_547))) (let ((.def_549 (or .def_548 .def_533))) (let ((.def_550 (and .def_549 .def_519))) (let ((.def_551 (+ .def_0 .def_99))) (let ((.def_552 (< .def_551 (- 1)))) (let ((.def_553 (not .def_552))) (let ((.def_554 (and .def_553 .def_45))) (let ((.def_555 (not .def_554))) (let ((.def_556 (not .def_100))) (let ((.def_557 (or .def_556 .def_198))) (let ((.def_558 (or .def_557 .def_555))) (let ((.def_559 (not .def_558))) (let ((.def_560 (or A9 .def_207))) (let ((.def_561 (not .def_560))) (let ((.def_562 (+ .def_101 .def_1))) (let ((.def_563 (< .def_562 1))) (let ((.def_564 (< .def_16 (- 1)))) (let ((.def_565 (not .def_564))) (let ((.def_566 (and .def_565 .def_563))) (let ((.def_567 (not .def_566))) (let ((.def_568 (or .def_567 .def_561))) (let ((.def_569 (and .def_568 .def_559))) (let ((.def_570 (+ .def_190 .def_20))) (let ((.def_571 (< .def_570 (- 1)))) (let ((.def_572 (not .def_571))) (let ((.def_573 (= .def_265 .def_572))) (let ((.def_574 (not .def_573))) (let ((.def_575 (< .def_55 1))) (let ((.def_576 (and .def_575 A6))) (let ((.def_577 (not .def_576))) (let ((.def_578 (and .def_577 .def_574))) (let ((.def_579 (+ .def_16 .def_190))) (let ((.def_580 (< .def_579 (- 1)))) (let ((.def_581 (+ .def_89 .def_101))) (let ((.def_582 (< .def_581 (- 1)))) (let ((.def_583 (or .def_582 .def_580))) (let ((.def_584 (or A8 .def_145))) (let ((.def_585 (and .def_584 .def_583))) (let ((.def_586 (or .def_585 .def_578))) (let ((.def_587 (not .def_586))) (let ((.def_588 (or .def_587 .def_569))) (let ((.def_589 (+ .def_43 .def_77))) (let ((.def_590 (< .def_589 (- 1)))) (let ((.def_591 (not .def_590))) (let ((.def_592 (+ .def_15 .def_16))) (let ((.def_593 (< .def_592 (- 1)))) (let ((.def_594 (not .def_593))) (let ((.def_595 (or .def_594 .def_591))) (let ((.def_596 (not .def_595))) (let ((.def_597 (+ .def_36 .def_1))) (let ((.def_598 (< .def_597 (- 1)))) (let ((.def_599 (not .def_598))) (let ((.def_600 (or .def_236 .def_599))) (let ((.def_601 (or .def_600 .def_596))) (let ((.def_602 (not .def_601))) (let ((.def_603 (and .def_384 .def_100))) (let ((.def_604 (not .def_603))) (let ((.def_605 (or .def_463 A5))) (let ((.def_606 (not .def_605))) (let ((.def_607 (or .def_606 .def_604))) (let ((.def_608 (not .def_607))) (let ((.def_609 (and .def_608 .def_602))) (let ((.def_610 (not .def_609))) (let ((.def_611 (or .def_236 .def_48))) (let ((.def_612 (not .def_438))) (let ((.def_613 (and .def_115 .def_612))) (let ((.def_614 (not .def_613))) (let ((.def_615 (and .def_614 .def_611))) (let ((.def_616 (not .def_378))) (let ((.def_617 (and .def_616 .def_109))) (let ((.def_618 (not .def_617))) (let ((.def_619 (+ .def_77 .def_0))) (let ((.def_620 (< .def_619 1))) (let ((.def_621 (and .def_181 .def_620))) (let ((.def_622 (or .def_621 .def_618))) (let ((.def_623 (not .def_622))) (let ((.def_624 (and .def_623 .def_615))) (let ((.def_625 (and .def_624 .def_610))) (let ((.def_626 (not .def_625))) (let ((.def_627 (and .def_626 .def_588))) (let ((.def_628 (and .def_627 .def_550))) (let ((.def_629 (not .def_628))) (let ((.def_630 (or .def_629 .def_483))) (let ((.def_631 (and .def_630 .def_331))) (let ((.def_632 (not .def_631))) (let ((.def_633 (<= x9 1))) (let ((.def_634 (<= 0 x9))) (let ((.def_635 (<= x8 1))) (let ((.def_636 (<= 0 x8))) (let ((.def_637 (<= x7 1))) (let ((.def_638 (<= 0 x7))) (let ((.def_639 (<= x6 1))) (let ((.def_640 (<= 0 x6))) (let ((.def_641 (<= x5 1))) (let ((.def_642 (<= 0 x5))) (let ((.def_643 (<= x4 1))) (let ((.def_644 (<= 0 x4))) (let ((.def_645 (<= x3 1))) (let ((.def_646 (<= 0 x3))) (let ((.def_647 (<= x2 1))) (let ((.def_648 (<= 0 x2))) (let ((.def_649 (<= x1 1))) (let ((.def_650 (<= 0 x1))) (let ((.def_651 (<= x0 1))) (let ((.def_652 (<= 0 x0))) (let ((.def_653 (and .def_652 .def_651 .def_650 .def_649 .def_648 .def_647 .def_646 .def_645 .def_644 .def_643 .def_642 .def_641 .def_640 .def_639 .def_638 .def_637 .def_636 .def_635 .def_634 .def_633 .def_632))) .def_653)))))))))))))))))))))))))))))))))))))))))))))))))))))))))))))))))))))))))))))))))))))))))))))))))))))))))))))))))))))))))))))))))))))))))))))))))))))))))))))))))))))))))))))))))))))))))))))))))))))))))))))))))))))))))))))))))))))))))))))))))))))))))))))))))))))))))))))))))))))))))))))))))))))))))))))))))))))))))))))))))))))))))))))))))))))))))))))))))))))))))))))))))))))))))))))))))))))))))))))))))))))))))))))))))))))))))))))))))))))))))))))))))))))))))))))))))))))))))))))))))))))))))))))))))))))))))))))))))))))))))))))))))))))))))))))))))))))))))))))))))))))))))))))))))))))))))))))))))))))))))))))))))))))))))))))))))))))))))))))))))))))))))))))))
(check-sat)
